
-15.5
-15.1
-14.8
-13.6
-12.5
-10.8
-9.1
-7.9
-6.4
-5.6
-4.8
-4.4
-3.6
-3.4
-3.1
-3.0
-2.9
-2.8
-2.8
-2.7
-2.7
-2.7
-2.7
-2.7
-2.7
-2.7
-2.7
-2.7
-2.7
-2.7
-2.7
-2.6
-2.6
-2.6
-2.6
-2.6
-2.6
-2.6
-2.6
-2.6
-2.6
-2.6
-2.6
-2.6
-2.6
-2.6
-2.6
-2.6
-2.6
-2.6
-2.6
-2.6
-15.3
-15.1
-14.8
-14.0
-12.9
-10.8
-9.4
-8.1
-6.7
-5.9
-5.0
-4.4
-4.0
-3.4
-3.0
-2.7
-2.7
-2.7
-2.7
-2.7
-2.7
-2.7
-2.7
-2.7
-2.7
-2.7
-2.7
-2.7
-2.7
-15.4
-14.6
-14.5
-14.1
-12.3
-10.9
-9.5
-7.8
-6.3
-5.9
-5.3
-4.4
-3.7
-3.4
-3.1
-2.8
-2.7
-2.7
-2.6
-2.6
-2.5
-2.5
-2.5
-2.5
-2.5
-2.5
-2.5
-2.5
-2.5
-2.5
-2.5
-2.4
-2.4